5 5
4 82 0 50 1 91 2 31 3 4
3 66 4 56 1 5 0 81 2 54
3 96 0 93 4 80 1 1 2 76
4 83 2 73 3 61 1 7 0 30
2 15 0 4 1 63 3 70 4 38
-1
0 1 5
0 3 5
0 1 2 4 5
0 1 5
0 3 4 5
-2
92 259
155 317
151 200 289 491
125 312
91 159 228

436 9
21 1 11 8 19
22 2 7 13 18
20 16 3 14 9
10 5 23 17 4
0 15 6 12 24
